c colouring generated by benchmark framework
p edge 125 6961
v 1 12
v 2 35
v 3 13
v 4 30
v 5 39
v 6 24
v 7 34
v 8 41
v 9 2
v 10 6
v 11 25
v 12 16
v 13 28
v 14 38
v 15 30
v 16 33
v 17 6
v 18 20
v 19 45
v 20 15
v 21 40
v 22 9
v 23 42
v 24 5
v 25 2
v 26 27
v 27 39
v 28 31
v 29 23
v 30 22
v 31 35
v 32 7
v 33 32
v 34 14
v 35 7
v 36 19
v 37 15
v 38 16
v 39 30
v 40 20
v 41 43
v 42 10
v 43 21
v 44 42
v 45 39
v 46 46
v 47 46
v 48 33
v 49 8
v 50 9
v 51 22
v 52 0
v 53 25
v 54 32
v 55 2
v 56 17
v 57 3
v 58 41
v 59 24
v 60 28
v 61 16
v 62 31
v 63 10
v 64 48
v 65 17
v 66 3
v 67 25
v 68 40
v 69 8
v 70 11
v 71 15
v 72 37
v 73 26
v 74 1
v 75 36
v 76 29
v 77 37
v 78 4
v 79 18
v 80 43
v 81 33
v 82 14
v 83 20
v 84 38
v 85 49
v 86 36
v 87 9
v 88 21
v 89 5
v 90 21
v 91 46
v 92 29
v 93 48
v 94 27
v 95 0
v 96 45
v 97 44
v 98 35
v 99 41
v 100 34
v 101 1
v 102 23
v 103 32
v 104 26
v 105 7
v 106 12
v 107 5
v 108 18
v 109 10
v 110 47
v 111 4
v 112 11
v 113 36
v 114 44
v 115 34
v 116 28
v 117 31
v 118 26
v 119 37
v 120 23
v 121 24
v 122 13
v 123 19
v 124 6
v 125 22
